p cnf 690 2269
a 2 3 4 5 6 7 8 12 17 19 21 22 23 26 28 30 31 33 35 37 38 40 42 44 46 48 50 52 55 56 63 65 69 73 75 77 81 88 93 98 101 102 109 110 114 118 119 122 126 130 132 134 136 138 139 143 147 149 153 157 162 164 168 170 0
e 1 9 10 11 13 14 15 16 18 20 24 25 27 29 32 34 36 39 41 43 45 47 49 51 53 54 57 58 59 60 61 62 64 66 67 68 70 71 72 74 76 78 79 80 82 83 84 85 86 87 89 90 91 92 94 95 96 97 99 100 103 104 105 106 107 108 111 112 113 115 116 117 120 121 123 124 125 127 128 129 131 133 135 137 140 141 142 144 145 146 148 150 151 152 154 155 156 158 159 160 161 163 165 166 167 169 171 172 173 174 175 176 177 178 179 180 181 182 183 184 185 186 187 188 189 190 191 192 193 194 195 196 197 198 199 200 201 202 203 204 205 206 207 208 209 210 211 212 213 214 215 216 217 218 219 220 221 222 223 224 225 226 227 228 229 230 231 232 233 234 235 236 237 238 239 240 241 242 243 244 245 246 247 248 249 250 251 252 253 254 255 256 257 258 259 260 261 262 263 264 265 266 267 268 269 270 271 272 273 274 275 276 277 278 279 280 281 282 283 284 285 286 287 288 289 290 291 292 293 294 295 296 297 298 299 300 301 302 303 304 305 306 307 308 309 310 311 312 313 314 315 316 317 318 319 320 321 322 323 324 325 326 327 328 329 330 331 332 333 334 335 336 337 338 339 340 341 342 343 344 345 346 347 348 349 350 351 352 353 354 355 356 357 358 359 360 361 362 363 364 365 366 367 368 369 370 371 372 373 374 375 376 377 378 379 380 381 382 383 384 385 386 387 388 389 390 391 392 393 394 395 396 397 398 399 400 401 402 403 404 405 406 407 408 409 410 411 412 413 414 415 416 417 418 419 420 421 422 423 424 425 426 427 428 429 430 431 432 433 434 435 436 437 438 439 440 441 442 443 444 445 446 447 448 449 450 451 452 453 454 455 456 457 458 459 460 461 462 463 464 465 466 467 468 469 470 471 472 473 474 475 476 477 478 479 480 481 482 483 484 485 486 487 488 489 490 491 492 493 494 495 496 497 498 499 500 501 502 503 504 505 506 507 508 509 510 511 512 513 514 515 516 517 518 519 520 521 522 523 524 525 526 527 528 529 530 531 532 533 534 535 536 537 538 539 540 541 542 543 544 545 546 547 548 549 550 551 552 553 554 555 556 557 558 559 560 561 562 563 564 565 566 567 568 569 570 571 572 573 574 575 576 577 578 579 580 581 582 583 584 585 586 587 588 589 590 591 592 593 594 595 596 597 598 599 600 601 602 603 604 605 606 607 608 609 610 611 612 613 614 615 616 617 618 619 620 621 622 623 624 625 626 627 628 629 630 631 632 633 634 635 636 637 638 639 640 641 642 643 644 645 646 647 648 649 650 651 652 653 654 655 656 657 658 659 660 661 662 663 664 665 666 667 668 669 670 671 672 673 674 675 676 677 678 679 680 681 682 683 684 685 686 687 688 689 690 0
1 0
7 -9 0
8 -9 0
-7 -8 9 0
7 -10 0
-8 -10 0
-7 8 10 0
7 11 0
-9 11 0
-10 11 0
-7 9 10 -11 0
-12 13 0
12 13 0
6 -14 0
11 -14 0
13 -14 0
-6 -11 -13 14 0
-6 -15 0
11 -15 0
6 -11 15 0
-14 16 0
-15 16 0
14 15 -16 0
-17 18 0
17 18 0
-19 20 0
19 20 0
22 -24 0
-23 -24 0
-22 23 24 0
22 25 0
-24 25 0
-22 24 -25 0
-26 27 0
26 27 0
27 -29 0
28 -29 0
-27 -28 29 0
-31 32 0
31 32 0
32 -34 0
-33 -34 0
-32 33 34 0
32 -36 0
33 -36 0
35 -36 0
-32 -33 -35 36 0
32 -39 0
33 -39 0
-35 -39 0
37 -39 0
38 -39 0
-32 -33 35 -37 -38 39 0
32 -41 0
33 -41 0
-35 -41 0
37 -41 0
-38 -41 0
-40 -41 0
-32 -33 35 -37 38 40 41 0
32 -43 0
33 -43 0
-35 -43 0
-37 -43 0
-42 -43 0
-32 -33 35 37 42 43 0
32 -45 0
33 -45 0
-35 -45 0
-37 -45 0
42 -45 0
44 -45 0
-32 -33 35 37 -42 -44 45 0
32 -47 0
33 -47 0
-35 -47 0
37 -47 0
-38 -47 0
40 -47 0
46 -47 0
-32 -33 35 -37 38 -40 -46 47 0
32 -49 0
33 -49 0
-35 -49 0
37 -49 0
-38 -49 0
40 -49 0
-46 -49 0
48 -49 0
-32 -33 35 -37 38 -40 46 -48 49 0
-50 51 0
50 51 0
32 -53 0
33 -53 0
-35 -53 0
-37 -53 0
42 -53 0
-44 -53 0
51 -53 0
52 -53 0
-32 -33 35 37 -42 44 -51 -52 53 0
32 -54 0
33 -54 0
-35 -54 0
-37 -54 0
42 -54 0
-44 -54 0
51 -54 0
-52 -54 0
-32 -33 35 37 -42 44 -51 52 54 0
55 -57 0
56 -57 0
-55 -56 57 0
55 -58 0
-56 -58 0
-55 56 58 0
55 59 0
-57 59 0
-58 59 0
-55 57 58 -59 0
32 -60 0
33 -60 0
-35 -60 0
37 -60 0
-38 -60 0
40 -60 0
-46 -60 0
-48 -60 0
59 -60 0
-32 -33 35 -37 38 -40 46 48 -59 60 0
-34 61 0
-36 61 0
-39 61 0
-41 61 0
-43 61 0
-45 61 0
-47 61 0
-49 61 0
-53 61 0
-54 61 0
-60 61 0
34 36 39 41 43 45 47 49 53 54 60 -61 0
27 -62 0
-28 -62 0
-30 -62 0
61 -62 0
-27 28 30 -61 62 0
27 -64 0
-28 -64 0
30 -64 0
-63 -64 0
-27 28 -30 63 64 0
27 -66 0
-28 -66 0
30 -66 0
63 -66 0
-65 -66 0
-27 28 -30 -63 65 66 0
27 -67 0
-28 -67 0
30 -67 0
63 -67 0
65 -67 0
-27 28 -30 -63 -65 67 0
-62 68 0
-64 68 0
-66 68 0
-67 68 0
62 64 66 67 -68 0
68 -70 0
69 -70 0
-68 -69 70 0
68 -71 0
-69 -71 0
-68 69 71 0
-29 72 0
-70 72 0
-71 72 0
29 70 71 -72 0
-73 74 0
73 74 0
21 -76 0
25 -76 0
72 -76 0
74 -76 0
75 -76 0
-21 -25 -72 -74 -75 76 0
-77 78 0
77 78 0
21 -79 0
25 -79 0
72 -79 0
74 -79 0
-75 -79 0
78 -79 0
-21 -25 -72 -74 75 -78 79 0
-76 80 0
-79 80 0
76 79 -80 0
80 -82 0
81 -82 0
-80 -81 82 0
80 -83 0
-81 -83 0
-80 81 83 0
21 84 0
-82 84 0
-83 84 0
-21 82 83 -84 0
5 -85 0
16 -85 0
18 -85 0
20 -85 0
84 -85 0
-5 -16 -18 -20 -84 85 0
-5 -86 0
16 -86 0
18 -86 0
20 -86 0
5 -16 -18 -20 86 0
-85 87 0
-86 87 0
85 86 -87 0
88 89 0
-88 89 0
4 -90 0
87 -90 0
89 -90 0
-4 -87 -89 90 0
-4 -91 0
87 -91 0
4 -87 91 0
-90 92 0
-91 92 0
90 91 -92 0
93 94 0
-93 94 0
3 -95 0
92 -95 0
94 -95 0
-3 -92 -94 95 0
-3 -96 0
92 -96 0
3 -92 96 0
-95 97 0
-96 97 0
95 96 -97 0
98 99 0
-98 99 0
2 -100 0
97 -100 0
99 -100 0
-2 -97 -99 100 0
102 103 0
-102 103 0
101 -104 0
97 -104 0
103 -104 0
-101 -97 -103 104 0
-101 -105 0
97 -105 0
101 -97 105 0
-104 106 0
-105 106 0
104 105 -106 0
-2 -107 0
106 -107 0
2 -106 107 0
-100 108 0
-107 108 0
100 107 -108 0
109 -111 0
110 -111 0
-109 -110 111 0
109 -112 0
-110 -112 0
-109 110 112 0
-111 113 0
-112 113 0
111 112 -113 0
113 -115 0
114 -115 0
-113 -114 115 0
113 -116 0
-114 -116 0
-113 114 116 0
-115 117 0
-116 117 0
115 116 -117 0
117 -120 0
-118 -120 0
119 -120 0
-117 118 -119 120 0
117 -121 0
-118 -121 0
-119 -121 0
-117 118 119 121 0
117 -123 0
118 -123 0
122 -123 0
-117 -118 -122 123 0
117 -124 0
118 -124 0
-122 -124 0
-117 -118 122 124 0
-120 125 0
-121 125 0
-123 125 0
-124 125 0
120 121 123 124 -125 0
125 -127 0
126 -127 0
-125 -126 127 0
125 -128 0
-126 -128 0
-125 126 128 0
-127 129 0
-128 129 0
127 128 -129 0
129 -131 0
130 -131 0
-129 -130 131 0
129 -133 0
-130 -133 0
132 -133 0
-129 130 -132 133 0
129 -135 0
-130 -135 0
-132 -135 0
134 -135 0
-129 130 132 -134 135 0
129 -137 0
-130 -137 0
-132 -137 0
-134 -137 0
136 -137 0
-129 130 132 134 -136 137 0
129 -140 0
-130 -140 0
-132 -140 0
-134 -140 0
-136 -140 0
138 -140 0
139 -140 0
-129 130 132 134 136 -138 -139 140 0
129 -141 0
-130 -141 0
-132 -141 0
-134 -141 0
-136 -141 0
138 -141 0
-139 -141 0
-129 130 132 134 136 -138 139 141 0
-140 142 0
-141 142 0
140 141 -142 0
142 -144 0
143 -144 0
-142 -143 144 0
142 -145 0
-143 -145 0
-142 143 145 0
-144 146 0
-145 146 0
144 145 -146 0
146 -148 0
147 -148 0
-146 -147 148 0
129 -150 0
-130 -150 0
-132 -150 0
-134 -150 0
-136 -150 0
-138 -150 0
149 -150 0
-129 130 132 134 136 138 -149 150 0
129 -151 0
-130 -151 0
-132 -151 0
-134 -151 0
-136 -151 0
-138 -151 0
-149 -151 0
-129 130 132 134 136 138 149 151 0
-150 152 0
-151 152 0
150 151 -152 0
152 -154 0
153 -154 0
-152 -153 154 0
152 -155 0
-153 -155 0
-152 153 155 0
-154 156 0
-155 156 0
154 155 -156 0
156 -158 0
157 -158 0
-156 -157 158 0
146 -159 0
-147 -159 0
-146 147 159 0
156 -160 0
-157 -160 0
-156 157 160 0
-148 161 0
-158 161 0
-159 161 0
-160 161 0
148 158 159 160 -161 0
161 -163 0
-162 -163 0
-161 162 163 0
161 -165 0
162 -165 0
164 -165 0
-161 -162 -164 165 0
161 -166 0
162 -166 0
-164 -166 0
-161 -162 164 166 0
109 167 0
-131 167 0
-133 167 0
-135 167 0
-137 167 0
-163 167 0
-165 167 0
-166 167 0
-109 131 133 135 137 163 165 166 -167 0
-168 169 0
168 169 0
-170 171 0
170 171 0
108 -172 0
167 -172 0
169 -172 0
171 -172 0
-108 -167 -169 -171 172 0
-12 173 0
12 173 0
6 -174 0
173 -174 0
-6 -173 174 0
-174 175 0
6 175 0
174 -6 -175 0
175 -176 0
-21 -176 0
-175 21 176 0
175 -177 0
27 -177 0
28 -177 0
-175 -27 -28 177 0
175 -178 0
27 -178 0
-28 -178 0
30 -178 0
63 -178 0
-65 -178 0
-175 -27 28 -30 -63 65 178 0
175 -179 0
27 -179 0
-28 -179 0
30 -179 0
63 -179 0
65 -179 0
-175 -27 28 -30 -63 -65 179 0
175 -180 0
27 -180 0
-28 -180 0
30 -180 0
-63 -180 0
-175 -27 28 -30 63 180 0
175 -181 0
31 -181 0
-175 -31 181 0
175 -182 0
-31 -182 0
-175 31 182 0
-181 183 0
-182 183 0
181 182 -183 0
-34 184 0
-36 184 0
-39 184 0
-41 184 0
-43 184 0
-45 184 0
-47 184 0
-49 184 0
34 36 39 41 43 45 47 49 -184 0
183 -185 0
184 -185 0
-183 -184 185 0
183 -186 0
32 -186 0
33 -186 0
-35 -186 0
37 -186 0
-38 -186 0
40 -186 0
-46 -186 0
-48 -186 0
59 -186 0
-183 -32 -33 35 -37 38 -40 46 48 -59 186 0
-53 187 0
-54 187 0
53 54 -187 0
183 -188 0
187 -188 0
-183 -187 188 0
-185 189 0
-186 189 0
-188 189 0
185 186 188 -189 0
189 -190 0
27 -190 0
-28 -190 0
-30 -190 0
61 -190 0
-189 -27 28 30 -61 190 0
-178 191 0
-179 191 0
-180 191 0
-190 191 0
178 179 180 190 -191 0
191 -192 0
68 -192 0
69 -192 0
-191 -68 -69 192 0
191 -193 0
68 -193 0
-69 -193 0
-191 -68 69 193 0
-177 194 0
-192 194 0
-193 194 0
177 192 193 -194 0
194 -195 0
21 -195 0
25 -195 0
72 -195 0
74 -195 0
75 -195 0
-194 -21 -25 -72 -74 -75 195 0
194 -196 0
21 -196 0
25 -196 0
72 -196 0
74 -196 0
-75 -196 0
78 -196 0
-194 -21 -25 -72 -74 75 -78 196 0
-195 197 0
-196 197 0
195 196 -197 0
-82 198 0
-83 198 0
82 83 -198 0
197 -199 0
198 -199 0
-197 -198 199 0
-176 200 0
-199 200 0
176 199 -200 0
5 -201 0
200 -201 0
-5 -200 201 0
-5 -202 0
175 -202 0
5 -175 202 0
-201 203 0
-202 203 0
201 202 -203 0
203 -204 0
-88 -204 0
-203 88 204 0
203 -205 0
88 -205 0
-203 -88 205 0
-204 206 0
-205 206 0
204 205 -206 0
4 -207 0
206 -207 0
-4 -206 207 0
-4 -208 0
203 -208 0
4 -203 208 0
-207 209 0
-208 209 0
207 208 -209 0
209 -210 0
-93 -210 0
-209 93 210 0
209 -211 0
93 -211 0
-209 -93 211 0
-210 212 0
-211 212 0
210 211 -212 0
3 -213 0
212 -213 0
-3 -212 213 0
-3 -214 0
209 -214 0
3 -209 214 0
-213 215 0
-214 215 0
213 214 -215 0
215 -216 0
-98 -216 0
-215 98 216 0
215 -217 0
98 -217 0
-215 -98 217 0
-216 218 0
-217 218 0
216 217 -218 0
2 -219 0
218 -219 0
-2 -218 219 0
215 -220 0
-102 -220 0
-215 102 220 0
215 -221 0
102 -221 0
-215 -102 221 0
-220 222 0
-221 222 0
220 221 -222 0
101 -223 0
222 -223 0
-101 -222 223 0
-101 -224 0
215 -224 0
101 -215 224 0
-223 225 0
-224 225 0
223 224 -225 0
-2 -226 0
225 -226 0
2 -225 226 0
-219 227 0
-226 227 0
219 226 -227 0
227 -228 0
-109 -228 0
-227 109 228 0
227 -229 0
109 -229 0
110 -229 0
-227 -109 -110 229 0
227 -230 0
109 -230 0
-110 -230 0
-227 -109 110 230 0
-229 231 0
-230 231 0
229 230 -231 0
231 -232 0
113 -232 0
114 -232 0
-231 -113 -114 232 0
231 -233 0
113 -233 0
-114 -233 0
-231 -113 114 233 0
-232 234 0
-233 234 0
232 233 -234 0
234 -235 0
125 -235 0
126 -235 0
-234 -125 -126 235 0
234 -236 0
125 -236 0
-126 -236 0
-234 -125 126 236 0
-235 237 0
-236 237 0
235 236 -237 0
-131 238 0
-133 238 0
-135 238 0
-137 238 0
131 133 135 137 -238 0
237 -239 0
238 -239 0
-237 -238 239 0
237 -240 0
129 -240 0
-130 -240 0
-132 -240 0
-134 -240 0
-136 -240 0
-138 -240 0
149 -240 0
-237 -129 130 132 134 136 138 -149 240 0
237 -241 0
129 -241 0
-130 -241 0
-132 -241 0
-134 -241 0
-136 -241 0
-138 -241 0
-149 -241 0
-237 -129 130 132 134 136 138 149 241 0
-240 242 0
-241 242 0
240 241 -242 0
242 -243 0
152 -243 0
153 -243 0
-242 -152 -153 243 0
242 -244 0
152 -244 0
-153 -244 0
-242 -152 153 244 0
-243 245 0
-244 245 0
243 244 -245 0
245 -246 0
156 -246 0
157 -246 0
-245 -156 -157 246 0
245 -247 0
156 -247 0
-157 -247 0
-245 -156 157 247 0
237 -248 0
129 -248 0
-130 -248 0
-132 -248 0
-134 -248 0
-136 -248 0
138 -248 0
139 -248 0
-237 -129 130 132 134 136 -138 -139 248 0
237 -249 0
129 -249 0
-130 -249 0
-132 -249 0
-134 -249 0
-136 -249 0
138 -249 0
-139 -249 0
-237 -129 130 132 134 136 -138 139 249 0
-248 250 0
-249 250 0
248 249 -250 0
250 -251 0
142 -251 0
143 -251 0
-250 -142 -143 251 0
250 -252 0
142 -252 0
-143 -252 0
-250 -142 143 252 0
-251 253 0
-252 253 0
251 252 -253 0
253 -254 0
146 -254 0
147 -254 0
-253 -146 -147 254 0
253 -255 0
146 -255 0
-147 -255 0
-253 -146 147 255 0
-246 256 0
-247 256 0
-254 256 0
-255 256 0
246 247 254 255 -256 0
-165 257 0
-166 257 0
165 166 -257 0
-163 258 0
-257 258 0
163 257 -258 0
256 -259 0
258 -259 0
-256 -258 259 0
-228 260 0
-239 260 0
-259 260 0
228 239 259 -260 0
-12 261 0
12 261 0
6 -262 0
261 -262 0
-6 -261 262 0
-262 263 0
6 263 0
262 -6 -263 0
263 -264 0
-21 -264 0
-263 21 264 0
263 -265 0
27 -265 0
28 -265 0
-263 -27 -28 265 0
263 -266 0
27 -266 0
-28 -266 0
30 -266 0
63 -266 0
-65 -266 0
-263 -27 28 -30 -63 65 266 0
263 -267 0
27 -267 0
-28 -267 0
30 -267 0
63 -267 0
65 -267 0
-263 -27 28 -30 -63 -65 267 0
263 -268 0
27 -268 0
-28 -268 0
30 -268 0
-63 -268 0
-263 -27 28 -30 63 268 0
263 -269 0
31 -269 0
-263 -31 269 0
263 -270 0
-31 -270 0
-263 31 270 0
-269 271 0
-270 271 0
269 270 -271 0
-34 272 0
-36 272 0
-39 272 0
-41 272 0
-43 272 0
-45 272 0
-47 272 0
-49 272 0
34 36 39 41 43 45 47 49 -272 0
271 -273 0
272 -273 0
-271 -272 273 0
271 -274 0
32 -274 0
33 -274 0
-35 -274 0
37 -274 0
-38 -274 0
40 -274 0
-46 -274 0
-48 -274 0
59 -274 0
-271 -32 -33 35 -37 38 -40 46 48 -59 274 0
271 -275 0
187 -275 0
-271 -187 275 0
-273 276 0
-274 276 0
-275 276 0
273 274 275 -276 0
276 -277 0
27 -277 0
-28 -277 0
-30 -277 0
61 -277 0
-276 -27 28 30 -61 277 0
-266 278 0
-267 278 0
-268 278 0
-277 278 0
266 267 268 277 -278 0
278 -279 0
68 -279 0
69 -279 0
-278 -68 -69 279 0
278 -280 0
68 -280 0
-69 -280 0
-278 -68 69 280 0
-265 281 0
-279 281 0
-280 281 0
265 279 280 -281 0
281 -282 0
21 -282 0
25 -282 0
72 -282 0
74 -282 0
75 -282 0
-281 -21 -25 -72 -74 -75 282 0
281 -283 0
21 -283 0
25 -283 0
72 -283 0
74 -283 0
-75 -283 0
78 -283 0
-281 -21 -25 -72 -74 75 -78 283 0
-282 284 0
-283 284 0
282 283 -284 0
284 -285 0
198 -285 0
-284 -198 285 0
-264 286 0
-285 286 0
264 285 -286 0
5 -287 0
286 -287 0
-5 -286 287 0
-5 -288 0
263 -288 0
5 -263 288 0
-287 289 0
-288 289 0
287 288 -289 0
289 -290 0
-88 -290 0
-289 88 290 0
289 -291 0
88 -291 0
-289 -88 291 0
-290 292 0
-291 292 0
290 291 -292 0
4 -293 0
292 -293 0
-4 -292 293 0
-4 -294 0
289 -294 0
4 -289 294 0
-293 295 0
-294 295 0
293 294 -295 0
295 -296 0
-93 -296 0
-295 93 296 0
295 -297 0
93 -297 0
-295 -93 297 0
-296 298 0
-297 298 0
296 297 -298 0
3 -299 0
298 -299 0
-3 -298 299 0
-3 -300 0
295 -300 0
3 -295 300 0
-299 301 0
-300 301 0
299 300 -301 0
301 -302 0
-98 -302 0
-301 98 302 0
301 -303 0
98 -303 0
-301 -98 303 0
-302 304 0
-303 304 0
302 303 -304 0
2 -305 0
304 -305 0
-2 -304 305 0
301 -306 0
-102 -306 0
-301 102 306 0
301 -307 0
102 -307 0
-301 -102 307 0
-306 308 0
-307 308 0
306 307 -308 0
101 -309 0
308 -309 0
-101 -308 309 0
-101 -310 0
301 -310 0
101 -301 310 0
-309 311 0
-310 311 0
309 310 -311 0
-2 -312 0
311 -312 0
2 -311 312 0
-305 313 0
-312 313 0
305 312 -313 0
313 -314 0
-109 -314 0
-313 109 314 0
313 -315 0
109 -315 0
110 -315 0
-313 -109 -110 315 0
313 -316 0
109 -316 0
-110 -316 0
-313 -109 110 316 0
-315 317 0
-316 317 0
315 316 -317 0
317 -318 0
113 -318 0
114 -318 0
-317 -113 -114 318 0
317 -319 0
113 -319 0
-114 -319 0
-317 -113 114 319 0
-318 320 0
-319 320 0
318 319 -320 0
320 -321 0
125 -321 0
126 -321 0
-320 -125 -126 321 0
320 -322 0
125 -322 0
-126 -322 0
-320 -125 126 322 0
-321 323 0
-322 323 0
321 322 -323 0
-131 324 0
-133 324 0
-135 324 0
-137 324 0
131 133 135 137 -324 0
323 -325 0
324 -325 0
-323 -324 325 0
323 -326 0
129 -326 0
-130 -326 0
-132 -326 0
-134 -326 0
-136 -326 0
-138 -326 0
149 -326 0
-323 -129 130 132 134 136 138 -149 326 0
323 -327 0
129 -327 0
-130 -327 0
-132 -327 0
-134 -327 0
-136 -327 0
-138 -327 0
-149 -327 0
-323 -129 130 132 134 136 138 149 327 0
-326 328 0
-327 328 0
326 327 -328 0
328 -329 0
152 -329 0
153 -329 0
-328 -152 -153 329 0
328 -330 0
152 -330 0
-153 -330 0
-328 -152 153 330 0
-329 331 0
-330 331 0
329 330 -331 0
331 -332 0
156 -332 0
157 -332 0
-331 -156 -157 332 0
331 -333 0
156 -333 0
-157 -333 0
-331 -156 157 333 0
323 -334 0
129 -334 0
-130 -334 0
-132 -334 0
-134 -334 0
-136 -334 0
138 -334 0
139 -334 0
-323 -129 130 132 134 136 -138 -139 334 0
323 -335 0
129 -335 0
-130 -335 0
-132 -335 0
-134 -335 0
-136 -335 0
138 -335 0
-139 -335 0
-323 -129 130 132 134 136 -138 139 335 0
-334 336 0
-335 336 0
334 335 -336 0
336 -337 0
142 -337 0
143 -337 0
-336 -142 -143 337 0
336 -338 0
142 -338 0
-143 -338 0
-336 -142 143 338 0
-337 339 0
-338 339 0
337 338 -339 0
339 -340 0
146 -340 0
147 -340 0
-339 -146 -147 340 0
339 -341 0
146 -341 0
-147 -341 0
-339 -146 147 341 0
-332 342 0
-333 342 0
-340 342 0
-341 342 0
332 333 340 341 -342 0
-163 343 0
-257 343 0
163 257 -343 0
342 -344 0
343 -344 0
-342 -343 344 0
-314 345 0
-325 345 0
-344 345 0
314 325 344 -345 0
351 -353 0
352 -353 0
-351 -352 353 0
351 -354 0
-352 -354 0
-351 352 354 0
351 355 0
-353 355 0
-354 355 0
-351 353 354 -355 0
-356 357 0
356 357 0
350 -358 0
355 -358 0
357 -358 0
-350 -355 -357 358 0
-350 -359 0
355 -359 0
350 -355 359 0
-358 360 0
-359 360 0
358 359 -360 0
-361 362 0
361 362 0
-363 364 0
363 364 0
366 -368 0
-367 -368 0
-366 367 368 0
366 369 0
-368 369 0
-366 368 -369 0
-370 371 0
370 371 0
371 -373 0
372 -373 0
-371 -372 373 0
-375 376 0
375 376 0
376 -378 0
-377 -378 0
-376 377 378 0
376 -380 0
377 -380 0
379 -380 0
-376 -377 -379 380 0
376 -383 0
377 -383 0
-379 -383 0
381 -383 0
382 -383 0
-376 -377 379 -381 -382 383 0
376 -385 0
377 -385 0
-379 -385 0
381 -385 0
-382 -385 0
-384 -385 0
-376 -377 379 -381 382 384 385 0
376 -387 0
377 -387 0
-379 -387 0
-381 -387 0
-386 -387 0
-376 -377 379 381 386 387 0
376 -389 0
377 -389 0
-379 -389 0
-381 -389 0
386 -389 0
388 -389 0
-376 -377 379 381 -386 -388 389 0
376 -391 0
377 -391 0
-379 -391 0
381 -391 0
-382 -391 0
384 -391 0
390 -391 0
-376 -377 379 -381 382 -384 -390 391 0
376 -393 0
377 -393 0
-379 -393 0
381 -393 0
-382 -393 0
384 -393 0
-390 -393 0
392 -393 0
-376 -377 379 -381 382 -384 390 -392 393 0
-394 395 0
394 395 0
376 -397 0
377 -397 0
-379 -397 0
-381 -397 0
386 -397 0
-388 -397 0
395 -397 0
396 -397 0
-376 -377 379 381 -386 388 -395 -396 397 0
376 -398 0
377 -398 0
-379 -398 0
-381 -398 0
386 -398 0
-388 -398 0
395 -398 0
-396 -398 0
-376 -377 379 381 -386 388 -395 396 398 0
399 -401 0
400 -401 0
-399 -400 401 0
399 -402 0
-400 -402 0
-399 400 402 0
399 403 0
-401 403 0
-402 403 0
-399 401 402 -403 0
376 -404 0
377 -404 0
-379 -404 0
381 -404 0
-382 -404 0
384 -404 0
-390 -404 0
-392 -404 0
403 -404 0
-376 -377 379 -381 382 -384 390 392 -403 404 0
-378 405 0
-380 405 0
-383 405 0
-385 405 0
-387 405 0
-389 405 0
-391 405 0
-393 405 0
-397 405 0
-398 405 0
-404 405 0
378 380 383 385 387 389 391 393 397 398 404 -405 0
371 -406 0
-372 -406 0
-374 -406 0
405 -406 0
-371 372 374 -405 406 0
371 -408 0
-372 -408 0
374 -408 0
-407 -408 0
-371 372 -374 407 408 0
371 -410 0
-372 -410 0
374 -410 0
407 -410 0
-409 -410 0
-371 372 -374 -407 409 410 0
371 -411 0
-372 -411 0
374 -411 0
407 -411 0
409 -411 0
-371 372 -374 -407 -409 411 0
-406 412 0
-408 412 0
-410 412 0
-411 412 0
406 408 410 411 -412 0
412 -414 0
413 -414 0
-412 -413 414 0
412 -415 0
-413 -415 0
-412 413 415 0
-373 416 0
-414 416 0
-415 416 0
373 414 415 -416 0
-417 418 0
417 418 0
365 -420 0
369 -420 0
416 -420 0
418 -420 0
419 -420 0
-365 -369 -416 -418 -419 420 0
-421 422 0
421 422 0
365 -423 0
369 -423 0
416 -423 0
418 -423 0
-419 -423 0
422 -423 0
-365 -369 -416 -418 419 -422 423 0
-420 424 0
-423 424 0
420 423 -424 0
424 -426 0
425 -426 0
-424 -425 426 0
424 -427 0
-425 -427 0
-424 425 427 0
365 428 0
-426 428 0
-427 428 0
-365 426 427 -428 0
349 -429 0
360 -429 0
362 -429 0
364 -429 0
428 -429 0
-349 -360 -362 -364 -428 429 0
-349 -430 0
360 -430 0
362 -430 0
364 -430 0
349 -360 -362 -364 430 0
-429 431 0
-430 431 0
429 430 -431 0
432 433 0
-432 433 0
348 -434 0
431 -434 0
433 -434 0
-348 -431 -433 434 0
-348 -435 0
431 -435 0
348 -431 435 0
-434 436 0
-435 436 0
434 435 -436 0
437 438 0
-437 438 0
347 -439 0
436 -439 0
438 -439 0
-347 -436 -438 439 0
-347 -440 0
436 -440 0
347 -436 440 0
-439 441 0
-440 441 0
439 440 -441 0
442 443 0
-442 443 0
346 -444 0
441 -444 0
443 -444 0
-346 -441 -443 444 0
446 447 0
-446 447 0
445 -448 0
441 -448 0
447 -448 0
-445 -441 -447 448 0
-445 -449 0
441 -449 0
445 -441 449 0
-448 450 0
-449 450 0
448 449 -450 0
-346 -451 0
450 -451 0
346 -450 451 0
-444 452 0
-451 452 0
444 451 -452 0
453 -455 0
454 -455 0
-453 -454 455 0
453 -456 0
-454 -456 0
-453 454 456 0
-455 457 0
-456 457 0
455 456 -457 0
457 -459 0
458 -459 0
-457 -458 459 0
457 -460 0
-458 -460 0
-457 458 460 0
-459 461 0
-460 461 0
459 460 -461 0
461 -464 0
-462 -464 0
463 -464 0
-461 462 -463 464 0
461 -465 0
-462 -465 0
-463 -465 0
-461 462 463 465 0
461 -467 0
462 -467 0
466 -467 0
-461 -462 -466 467 0
461 -468 0
462 -468 0
-466 -468 0
-461 -462 466 468 0
-464 469 0
-465 469 0
-467 469 0
-468 469 0
464 465 467 468 -469 0
469 -471 0
470 -471 0
-469 -470 471 0
469 -472 0
-470 -472 0
-469 470 472 0
-471 473 0
-472 473 0
471 472 -473 0
473 -475 0
474 -475 0
-473 -474 475 0
473 -477 0
-474 -477 0
476 -477 0
-473 474 -476 477 0
473 -479 0
-474 -479 0
-476 -479 0
478 -479 0
-473 474 476 -478 479 0
473 -481 0
-474 -481 0
-476 -481 0
-478 -481 0
480 -481 0
-473 474 476 478 -480 481 0
473 -484 0
-474 -484 0
-476 -484 0
-478 -484 0
-480 -484 0
482 -484 0
483 -484 0
-473 474 476 478 480 -482 -483 484 0
473 -485 0
-474 -485 0
-476 -485 0
-478 -485 0
-480 -485 0
482 -485 0
-483 -485 0
-473 474 476 478 480 -482 483 485 0
-484 486 0
-485 486 0
484 485 -486 0
486 -488 0
487 -488 0
-486 -487 488 0
486 -489 0
-487 -489 0
-486 487 489 0
-488 490 0
-489 490 0
488 489 -490 0
490 -492 0
491 -492 0
-490 -491 492 0
473 -494 0
-474 -494 0
-476 -494 0
-478 -494 0
-480 -494 0
-482 -494 0
493 -494 0
-473 474 476 478 480 482 -493 494 0
473 -495 0
-474 -495 0
-476 -495 0
-478 -495 0
-480 -495 0
-482 -495 0
-493 -495 0
-473 474 476 478 480 482 493 495 0
-494 496 0
-495 496 0
494 495 -496 0
496 -498 0
497 -498 0
-496 -497 498 0
496 -499 0
-497 -499 0
-496 497 499 0
-498 500 0
-499 500 0
498 499 -500 0
500 -502 0
501 -502 0
-500 -501 502 0
490 -503 0
-491 -503 0
-490 491 503 0
500 -504 0
-501 -504 0
-500 501 504 0
-492 505 0
-502 505 0
-503 505 0
-504 505 0
492 502 503 504 -505 0
505 -507 0
-506 -507 0
-505 506 507 0
505 -509 0
506 -509 0
508 -509 0
-505 -506 -508 509 0
505 -510 0
506 -510 0
-508 -510 0
-505 -506 508 510 0
453 511 0
-475 511 0
-477 511 0
-479 511 0
-481 511 0
-507 511 0
-509 511 0
-510 511 0
-453 475 477 479 481 507 509 510 -511 0
-512 513 0
512 513 0
452 -514 0
511 -514 0
513 -514 0
-452 -511 -513 514 0
-356 515 0
356 515 0
350 -516 0
515 -516 0
-350 -515 516 0
-516 517 0
350 517 0
516 -350 -517 0
517 -518 0
-365 -518 0
-517 365 518 0
517 -519 0
371 -519 0
372 -519 0
-517 -371 -372 519 0
517 -520 0
371 -520 0
-372 -520 0
374 -520 0
407 -520 0
-409 -520 0
-517 -371 372 -374 -407 409 520 0
517 -521 0
371 -521 0
-372 -521 0
374 -521 0
407 -521 0
409 -521 0
-517 -371 372 -374 -407 -409 521 0
517 -522 0
371 -522 0
-372 -522 0
374 -522 0
-407 -522 0
-517 -371 372 -374 407 522 0
517 -523 0
375 -523 0
-517 -375 523 0
517 -524 0
-375 -524 0
-517 375 524 0
-523 525 0
-524 525 0
523 524 -525 0
-378 526 0
-380 526 0
-383 526 0
-385 526 0
-387 526 0
-389 526 0
-391 526 0
-393 526 0
378 380 383 385 387 389 391 393 -526 0
525 -527 0
526 -527 0
-525 -526 527 0
525 -528 0
376 -528 0
377 -528 0
-379 -528 0
381 -528 0
-382 -528 0
384 -528 0
-390 -528 0
-392 -528 0
403 -528 0
-525 -376 -377 379 -381 382 -384 390 392 -403 528 0
-397 529 0
-398 529 0
397 398 -529 0
525 -530 0
529 -530 0
-525 -529 530 0
-527 531 0
-528 531 0
-530 531 0
527 528 530 -531 0
531 -532 0
371 -532 0
-372 -532 0
-374 -532 0
405 -532 0
-531 -371 372 374 -405 532 0
-520 533 0
-521 533 0
-522 533 0
-532 533 0
520 521 522 532 -533 0
533 -534 0
412 -534 0
413 -534 0
-533 -412 -413 534 0
533 -535 0
412 -535 0
-413 -535 0
-533 -412 413 535 0
-519 536 0
-534 536 0
-535 536 0
519 534 535 -536 0
536 -537 0
365 -537 0
369 -537 0
416 -537 0
418 -537 0
419 -537 0
-536 -365 -369 -416 -418 -419 537 0
536 -538 0
365 -538 0
369 -538 0
416 -538 0
418 -538 0
-419 -538 0
422 -538 0
-536 -365 -369 -416 -418 419 -422 538 0
-537 539 0
-538 539 0
537 538 -539 0
-426 540 0
-427 540 0
426 427 -540 0
539 -541 0
540 -541 0
-539 -540 541 0
-518 542 0
-541 542 0
518 541 -542 0
349 -543 0
542 -543 0
-349 -542 543 0
-349 -544 0
517 -544 0
349 -517 544 0
-543 545 0
-544 545 0
543 544 -545 0
545 -546 0
-432 -546 0
-545 432 546 0
545 -547 0
432 -547 0
-545 -432 547 0
-546 548 0
-547 548 0
546 547 -548 0
348 -549 0
548 -549 0
-348 -548 549 0
-348 -550 0
545 -550 0
348 -545 550 0
-549 551 0
-550 551 0
549 550 -551 0
551 -552 0
-437 -552 0
-551 437 552 0
551 -553 0
437 -553 0
-551 -437 553 0
-552 554 0
-553 554 0
552 553 -554 0
347 -555 0
554 -555 0
-347 -554 555 0
-347 -556 0
551 -556 0
347 -551 556 0
-555 557 0
-556 557 0
555 556 -557 0
557 -558 0
-442 -558 0
-557 442 558 0
557 -559 0
442 -559 0
-557 -442 559 0
-558 560 0
-559 560 0
558 559 -560 0
346 -561 0
560 -561 0
-346 -560 561 0
557 -562 0
-446 -562 0
-557 446 562 0
557 -563 0
446 -563 0
-557 -446 563 0
-562 564 0
-563 564 0
562 563 -564 0
445 -565 0
564 -565 0
-445 -564 565 0
-445 -566 0
557 -566 0
445 -557 566 0
-565 567 0
-566 567 0
565 566 -567 0
-346 -568 0
567 -568 0
346 -567 568 0
-561 569 0
-568 569 0
561 568 -569 0
569 -570 0
-453 -570 0
-569 453 570 0
569 -571 0
453 -571 0
454 -571 0
-569 -453 -454 571 0
569 -572 0
453 -572 0
-454 -572 0
-569 -453 454 572 0
-571 573 0
-572 573 0
571 572 -573 0
573 -574 0
457 -574 0
458 -574 0
-573 -457 -458 574 0
573 -575 0
457 -575 0
-458 -575 0
-573 -457 458 575 0
-574 576 0
-575 576 0
574 575 -576 0
576 -577 0
469 -577 0
470 -577 0
-576 -469 -470 577 0
576 -578 0
469 -578 0
-470 -578 0
-576 -469 470 578 0
-577 579 0
-578 579 0
577 578 -579 0
-475 580 0
-477 580 0
-479 580 0
-481 580 0
475 477 479 481 -580 0
579 -581 0
580 -581 0
-579 -580 581 0
579 -582 0
473 -582 0
-474 -582 0
-476 -582 0
-478 -582 0
-480 -582 0
-482 -582 0
493 -582 0
-579 -473 474 476 478 480 482 -493 582 0
579 -583 0
473 -583 0
-474 -583 0
-476 -583 0
-478 -583 0
-480 -583 0
-482 -583 0
-493 -583 0
-579 -473 474 476 478 480 482 493 583 0
-582 584 0
-583 584 0
582 583 -584 0
584 -585 0
496 -585 0
497 -585 0
-584 -496 -497 585 0
584 -586 0
496 -586 0
-497 -586 0
-584 -496 497 586 0
-585 587 0
-586 587 0
585 586 -587 0
587 -588 0
500 -588 0
501 -588 0
-587 -500 -501 588 0
587 -589 0
500 -589 0
-501 -589 0
-587 -500 501 589 0
579 -590 0
473 -590 0
-474 -590 0
-476 -590 0
-478 -590 0
-480 -590 0
482 -590 0
483 -590 0
-579 -473 474 476 478 480 -482 -483 590 0
579 -591 0
473 -591 0
-474 -591 0
-476 -591 0
-478 -591 0
-480 -591 0
482 -591 0
-483 -591 0
-579 -473 474 476 478 480 -482 483 591 0
-590 592 0
-591 592 0
590 591 -592 0
592 -593 0
486 -593 0
487 -593 0
-592 -486 -487 593 0
592 -594 0
486 -594 0
-487 -594 0
-592 -486 487 594 0
-593 595 0
-594 595 0
593 594 -595 0
595 -596 0
490 -596 0
491 -596 0
-595 -490 -491 596 0
595 -597 0
490 -597 0
-491 -597 0
-595 -490 491 597 0
-588 598 0
-589 598 0
-596 598 0
-597 598 0
588 589 596 597 -598 0
-509 599 0
-510 599 0
509 510 -599 0
-507 600 0
-599 600 0
507 599 -600 0
598 -601 0
600 -601 0
-598 -600 601 0
-570 602 0
-581 602 0
-601 602 0
570 581 601 -602 0
-356 603 0
356 603 0
350 -604 0
603 -604 0
-350 -603 604 0
-604 605 0
350 605 0
604 -350 -605 0
605 -606 0
-365 -606 0
-605 365 606 0
605 -607 0
371 -607 0
372 -607 0
-605 -371 -372 607 0
605 -608 0
371 -608 0
-372 -608 0
374 -608 0
407 -608 0
-409 -608 0
-605 -371 372 -374 -407 409 608 0
605 -609 0
371 -609 0
-372 -609 0
374 -609 0
407 -609 0
409 -609 0
-605 -371 372 -374 -407 -409 609 0
605 -610 0
371 -610 0
-372 -610 0
374 -610 0
-407 -610 0
-605 -371 372 -374 407 610 0
605 -611 0
375 -611 0
-605 -375 611 0
605 -612 0
-375 -612 0
-605 375 612 0
-611 613 0
-612 613 0
611 612 -613 0
-378 614 0
-380 614 0
-383 614 0
-385 614 0
-387 614 0
-389 614 0
-391 614 0
-393 614 0
378 380 383 385 387 389 391 393 -614 0
613 -615 0
614 -615 0
-613 -614 615 0
613 -616 0
376 -616 0
377 -616 0
-379 -616 0
381 -616 0
-382 -616 0
384 -616 0
-390 -616 0
-392 -616 0
403 -616 0
-613 -376 -377 379 -381 382 -384 390 392 -403 616 0
613 -617 0
529 -617 0
-613 -529 617 0
-615 618 0
-616 618 0
-617 618 0
615 616 617 -618 0
618 -619 0
371 -619 0
-372 -619 0
-374 -619 0
405 -619 0
-618 -371 372 374 -405 619 0
-608 620 0
-609 620 0
-610 620 0
-619 620 0
608 609 610 619 -620 0
620 -621 0
412 -621 0
413 -621 0
-620 -412 -413 621 0
620 -622 0
412 -622 0
-413 -622 0
-620 -412 413 622 0
-607 623 0
-621 623 0
-622 623 0
607 621 622 -623 0
623 -624 0
365 -624 0
369 -624 0
416 -624 0
418 -624 0
419 -624 0
-623 -365 -369 -416 -418 -419 624 0
623 -625 0
365 -625 0
369 -625 0
416 -625 0
418 -625 0
-419 -625 0
422 -625 0
-623 -365 -369 -416 -418 419 -422 625 0
-624 626 0
-625 626 0
624 625 -626 0
626 -627 0
540 -627 0
-626 -540 627 0
-606 628 0
-627 628 0
606 627 -628 0
349 -629 0
628 -629 0
-349 -628 629 0
-349 -630 0
605 -630 0
349 -605 630 0
-629 631 0
-630 631 0
629 630 -631 0
631 -632 0
-432 -632 0
-631 432 632 0
631 -633 0
432 -633 0
-631 -432 633 0
-632 634 0
-633 634 0
632 633 -634 0
348 -635 0
634 -635 0
-348 -634 635 0
-348 -636 0
631 -636 0
348 -631 636 0
-635 637 0
-636 637 0
635 636 -637 0
637 -638 0
-437 -638 0
-637 437 638 0
637 -639 0
437 -639 0
-637 -437 639 0
-638 640 0
-639 640 0
638 639 -640 0
347 -641 0
640 -641 0
-347 -640 641 0
-347 -642 0
637 -642 0
347 -637 642 0
-641 643 0
-642 643 0
641 642 -643 0
643 -644 0
-442 -644 0
-643 442 644 0
643 -645 0
442 -645 0
-643 -442 645 0
-644 646 0
-645 646 0
644 645 -646 0
346 -647 0
646 -647 0
-346 -646 647 0
643 -648 0
-446 -648 0
-643 446 648 0
643 -649 0
446 -649 0
-643 -446 649 0
-648 650 0
-649 650 0
648 649 -650 0
445 -651 0
650 -651 0
-445 -650 651 0
-445 -652 0
643 -652 0
445 -643 652 0
-651 653 0
-652 653 0
651 652 -653 0
-346 -654 0
653 -654 0
346 -653 654 0
-647 655 0
-654 655 0
647 654 -655 0
655 -656 0
-453 -656 0
-655 453 656 0
655 -657 0
453 -657 0
454 -657 0
-655 -453 -454 657 0
655 -658 0
453 -658 0
-454 -658 0
-655 -453 454 658 0
-657 659 0
-658 659 0
657 658 -659 0
659 -660 0
457 -660 0
458 -660 0
-659 -457 -458 660 0
659 -661 0
457 -661 0
-458 -661 0
-659 -457 458 661 0
-660 662 0
-661 662 0
660 661 -662 0
662 -663 0
469 -663 0
470 -663 0
-662 -469 -470 663 0
662 -664 0
469 -664 0
-470 -664 0
-662 -469 470 664 0
-663 665 0
-664 665 0
663 664 -665 0
-475 666 0
-477 666 0
-479 666 0
-481 666 0
475 477 479 481 -666 0
665 -667 0
666 -667 0
-665 -666 667 0
665 -668 0
473 -668 0
-474 -668 0
-476 -668 0
-478 -668 0
-480 -668 0
-482 -668 0
493 -668 0
-665 -473 474 476 478 480 482 -493 668 0
665 -669 0
473 -669 0
-474 -669 0
-476 -669 0
-478 -669 0
-480 -669 0
-482 -669 0
-493 -669 0
-665 -473 474 476 478 480 482 493 669 0
-668 670 0
-669 670 0
668 669 -670 0
670 -671 0
496 -671 0
497 -671 0
-670 -496 -497 671 0
670 -672 0
496 -672 0
-497 -672 0
-670 -496 497 672 0
-671 673 0
-672 673 0
671 672 -673 0
673 -674 0
500 -674 0
501 -674 0
-673 -500 -501 674 0
673 -675 0
500 -675 0
-501 -675 0
-673 -500 501 675 0
665 -676 0
473 -676 0
-474 -676 0
-476 -676 0
-478 -676 0
-480 -676 0
482 -676 0
483 -676 0
-665 -473 474 476 478 480 -482 -483 676 0
665 -677 0
473 -677 0
-474 -677 0
-476 -677 0
-478 -677 0
-480 -677 0
482 -677 0
-483 -677 0
-665 -473 474 476 478 480 -482 483 677 0
-676 678 0
-677 678 0
676 677 -678 0
678 -679 0
486 -679 0
487 -679 0
-678 -486 -487 679 0
678 -680 0
486 -680 0
-487 -680 0
-678 -486 487 680 0
-679 681 0
-680 681 0
679 680 -681 0
681 -682 0
490 -682 0
491 -682 0
-681 -490 -491 682 0
681 -683 0
490 -683 0
-491 -683 0
-681 -490 491 683 0
-674 684 0
-675 684 0
-682 684 0
-683 684 0
674 675 682 683 -684 0
-507 685 0
-599 685 0
507 599 -685 0
684 -686 0
685 -686 0
-684 -685 686 0
-656 687 0
-667 687 0
-686 687 0
656 667 686 -687 0
-602 -260 -688 0
602 260 -688 0
-602 260 688 0
602 -260 688 0
-687 -345 -689 0
687 345 -689 0
-687 345 689 0
687 -345 689 0
-688 -690 0
-689 -690 0
514 -690 0
688 689 -514 690 0
-172 690 0
